*SPEF "ieee 1481-1999"
*DESIGN "cnt8_top"
*DATE "11:11:11 Fri 11 11, 1111"
*VENDOR "OpenRCX"
*PROGRAM "Parallel Extraction"
*VERSION "1.0"
*DESIGN_FLOW "NAME_SCOPE LOCAL" "PIN_CAP NONE"
*DIVIDER /
*DELIMITER :
*BUS_DELIMITER []
*T_UNIT 1 NS
*C_UNIT 1 PF
*R_UNIT 1 OHM
*L_UNIT 1 HENRY

*NAME_MAP
*3 clk
*4 count_r[0]
*5 count_r[1]
*6 count_r[2]
*7 count_r[3]
*8 count_r[4]
*9 count_r[5]
*10 count_r[6]
*11 count_r[7]
*12 rst_n
*13 _00_
*14 _01_
*15 _02_
*16 _03_
*17 _04_
*18 _05_
*19 _06_
*20 _07_
*21 _08_
*22 _09_
*23 _10_
*24 _11_
*25 _12_
*26 _13_
*27 _14_
*28 _15_
*29 _16_
*30 _17_
*31 _18_
*32 _19_
*33 _20_
*34 _21_
*35 _22_
*36 _23_
*37 _24_
*38 _25_
*39 _26_
*40 _27_
*41 _28_
*42 _29_[0]
*43 clknet_0_clk
*44 clknet_1_0__leaf_clk
*45 clknet_1_1__leaf_clk
*46 FILLER0_0_0
*47 FILLER0_0_123
*48 FILLER0_0_139
*49 FILLER0_0_147
*50 FILLER0_0_151
*51 FILLER0_0_24
*52 FILLER0_0_37
*53 FILLER0_0_4
*54 FILLER0_0_45
*55 FILLER0_0_49
*56 FILLER0_0_57
*57 FILLER0_0_69
*58 FILLER0_0_74
*59 FILLER0_0_82
*60 FILLER0_0_84
*61 FILLER0_0_9
*62 FILLER0_0_91
*63 FILLER0_10_0
*64 FILLER0_10_12
*65 FILLER0_10_121
*66 FILLER0_10_17
*67 FILLER0_10_25
*68 FILLER0_10_57
*69 FILLER0_10_8
*70 FILLER0_10_89
*71 FILLER0_12_0
*72 FILLER0_12_128
*73 FILLER0_12_144
*74 FILLER0_12_152
*75 FILLER0_12_32
*76 FILLER0_12_64
*77 FILLER0_12_96
*78 FILLER0_14_0
*79 FILLER0_14_128
*80 FILLER0_14_144
*81 FILLER0_14_152
*82 FILLER0_14_32
*83 FILLER0_14_64
*84 FILLER0_14_96
*85 FILLER0_16_0
*86 FILLER0_16_128
*87 FILLER0_16_144
*88 FILLER0_16_152
*89 FILLER0_16_32
*90 FILLER0_16_64
*91 FILLER0_16_96
*92 FILLER0_18_0
*93 FILLER0_18_128
*94 FILLER0_18_144
*95 FILLER0_18_152
*96 FILLER0_18_32
*97 FILLER0_18_64
*98 FILLER0_18_96
*99 FILLER0_20_0
*100 FILLER0_20_128
*101 FILLER0_20_144
*102 FILLER0_20_152
*103 FILLER0_20_32
*104 FILLER0_20_64
*105 FILLER0_20_96
*106 FILLER0_22_0
*107 FILLER0_22_128
*108 FILLER0_22_144
*109 FILLER0_22_152
*110 FILLER0_22_32
*111 FILLER0_22_64
*112 FILLER0_22_96
*113 FILLER0_2_0
*114 FILLER0_2_108
*115 FILLER0_2_140
*116 FILLER0_2_148
*117 FILLER0_2_152
*118 FILLER0_2_8
*119 FILLER0_2_82
*120 FILLER0_2_84
*121 FILLER0_4_0
*122 FILLER0_4_100
*123 FILLER0_4_132
*124 FILLER0_4_148
*125 FILLER0_4_152
*126 FILLER0_4_16
*127 FILLER0_4_25
*128 FILLER0_4_41
*129 FILLER0_4_45
*130 FILLER0_4_50
*131 FILLER0_4_58
*132 FILLER0_4_68
*133 FILLER0_6_0
*134 FILLER0_6_12
*135 FILLER0_6_127
*136 FILLER0_6_143
*137 FILLER0_6_151
*138 FILLER0_6_29
*139 FILLER0_6_45
*140 FILLER0_6_49
*141 FILLER0_6_70
*142 FILLER0_6_78
*143 FILLER0_6_8
*144 FILLER0_6_95
*145 FILLER0_8_122
*146 FILLER0_8_138
*147 FILLER0_8_146
*148 FILLER0_8_150
*149 FILLER0_8_152
*150 FILLER0_8_22
*151 FILLER0_8_46
*152 FILLER0_8_51
*153 FILLER0_8_71
*154 FILLER0_8_79
*155 FILLER0_8_83
*156 FILLER0_8_90
*157 _30_
*158 _31_
*159 _32_
*160 _33_
*161 _34_
*162 _35_
*163 _36_
*164 _37_
*165 _38_
*166 _39_
*167 _40_
*168 _41_
*169 _42_
*170 _43_
*171 _44_
*172 _45_
*173 _46_
*174 _47_
*175 _48_
*176 _49_
*177 _50_
*178 _51_
*179 _52_
*180 _53_
*181 _54_
*182 _55_
*183 _56_
*184 _57_
*185 _58_
*186 _59_
*187 clkbuf_0_clk
*188 clkbuf_1_0__f_clk
*189 clkbuf_1_1__f_clk

*PORTS
clk I
count[0] O
count[1] O
count[2] O
count[3] O
count[4] O
count[5] O
count[6] O
count[7] O
rst_n I

*D_NET *3 0
*CONN
*P clk I
*I *187:IN1 I *D INVR00
*CAP
1 clk 0
2 *187:IN1 0
3 *187:IN1 *170:IN1 0
4 *187:IN1 *170:IN2 0
5 *187:IN1 *172:IN2 0
6 *187:IN1 *183:C 0
7 *187:IN1 *183:D 0
8 *187:IN1 *4:49 0
9 *187:IN1 *43:7 0
*RES
1 clk *187:IN1 0 
*END

*D_NET *4 0
*CONN
*P count[0] O
*I *160:IN1 I *D ORND00
*I *161:IN1 I *D ADNR00
*I *162:IN1 I *D AND300
*I *165:IN1 I *D AND400
*I *168:IN1 I *D AND500
*I *171:IN1 I *D NND600
*I *163:IN1 I *D ADNR00
*I *179:Q O *D DFFL11
*CAP
1 count[0] 0
2 *160:IN1 0
3 *161:IN1 0
4 *162:IN1 0
5 *165:IN1 0
6 *168:IN1 0
7 *171:IN1 0
8 *163:IN1 0
9 *179:Q 0
10 *4:134 0
11 *4:53 0
12 *4:49 0
13 *4:35 0
14 *4:15 0
15 *4:13 0
16 *4:11 0
17 count[0] count[1] 0
18 count[0] count[2] 0
19 count[0] *171:IN3 0
20 count[0] *12:7 0
21 *160:IN1 *160:IN3 0
22 *160:IN1 *161:IN2 0
23 *160:IN1 *161:IN3 0
24 *160:IN1 *5:17 0
25 *161:IN1 *161:IN2 0
26 *162:IN1 *162:IN2 0
27 *162:IN1 *166:IN2 0
28 *163:IN1 *162:IN2 0
29 *163:IN1 *163:IN2 0
30 *163:IN1 *164:IN3 0
31 *163:IN1 *165:IN3 0
32 *163:IN1 *12:41 0
33 *165:IN1 *166:IN1 0
34 *165:IN1 *5:89 0
35 *165:IN1 *7:15 0
36 *168:IN1 count[3] 0
37 *168:IN1 *5:45 0
38 *171:IN1 count[5] 0
39 *171:IN1 *171:IN2 0
40 *171:IN1 *171:IN3 0
41 *171:IN1 *171:IN4 0
42 *171:IN1 *9:9 0
43 *4:13 *166:IN2 0
44 *4:15 *162:IN2 0
45 *4:15 *164:IN3 0
46 *4:15 *166:IN2 0
47 *4:35 *165:IN3 0
48 *4:35 *166:IN1 0
49 *4:35 *5:89 0
50 *4:35 *6:35 0
51 *4:49 *168:IN2 0
52 *4:49 *170:IN2 0
53 *4:49 *188:IN1 0
54 *4:49 *7:15 0
55 *4:49 *7:19 0
56 *4:49 *12:19 0
57 *4:49 *43:7 0
58 *4:53 *188:IN1 0
59 *4:53 *12:19 0
60 *187:IN1 *4:49 0
*RES
1 *179:Q *4:11 0.3375 
2 *4:11 *4:13 0 
3 *4:13 *4:15 0 
4 *4:15 *163:IN1 0.3375 
5 *4:15 *4:35 0.675 
6 *4:35 *4:49 0.675 
7 *4:49 *4:53 0.3375 
8 *4:53 *171:IN1 0 
9 *4:53 count[0] 0 
10 *4:49 *168:IN1 0.3375 
11 *4:35 *165:IN1 0.3375 
12 *4:13 *162:IN1 0.3375 
13 *4:11 *161:IN1 0.3375 
14 *161:IN1 *160:IN1 0.675 
15 *161:IN1 *4:134 0 
*END

*D_NET *5 0
*CONN
*P count[1] O
*I *160:IN2 I *D ORND00
*I *163:IN2 I *D ADNR00
*I *162:IN2 I *D AND300
*I *165:IN2 I *D AND400
*I *168:IN2 I *D AND500
*I *171:IN2 I *D NND600
*I *161:IN2 I *D ADNR00
*I *180:Q O *D DFFL11
*CAP
1 count[1] 0
2 *160:IN2 0
3 *163:IN2 0
4 *162:IN2 0
5 *165:IN2 0
6 *168:IN2 0
7 *171:IN2 0
8 *161:IN2 0
9 *180:Q 0
10 *5:89 0
11 *5:45 0
12 *5:25 0
13 *5:19 0
14 *5:17 0
15 count[1] count[2] 0
16 *160:IN2 *161:IN3 0
17 *162:IN2 *164:IN3 0
18 *162:IN2 *165:IN3 0
19 *163:IN2 *12:41 0
20 *168:IN2 count[3] 0
21 *168:IN2 *168:IN3 0
22 *168:IN2 *188:IN1 0
23 *171:IN2 count[3] 0
24 *171:IN2 *171:IN4 0
25 *171:IN2 *172:IN1 0
26 *171:IN2 *173:IN2 0
27 *171:IN2 *174:IN2 0
28 *171:IN2 *9:9 0
29 *5:17 *161:IN3 0
30 *5:17 *180:D 0
31 *5:19 *180:C 0
32 *5:19 *7:13 0
33 *5:19 *7:15 0
34 *5:25 *7:15 0
35 *5:25 *7:19 0
36 *5:45 count[3] 0
37 *5:45 *170:IN1 0
38 *5:45 *170:IN2 0
39 *5:45 *7:21 0
40 *5:89 *165:IN3 0
41 *5:89 *166:IN1 0
42 *5:89 *12:35 0
43 *5:89 *12:41 0
44 count[0] count[1] 0
45 *160:IN1 *161:IN2 0
46 *160:IN1 *5:17 0
47 *161:IN1 *161:IN2 0
48 *162:IN1 *162:IN2 0
49 *163:IN1 *162:IN2 0
50 *163:IN1 *163:IN2 0
51 *165:IN1 *5:89 0
52 *168:IN1 *5:45 0
53 *171:IN1 *171:IN2 0
54 *4:15 *162:IN2 0
55 *4:35 *5:89 0
56 *4:49 *168:IN2 0
*RES
1 *180:Q *161:IN2 0 
2 *161:IN2 *5:17 0.3375 
3 *5:17 *5:19 0 
4 *5:19 *5:25 0.3375 
5 *5:25 *171:IN2 0 
6 *5:25 *5:45 0 
7 *5:45 count[1] 0.675 
8 *5:45 *168:IN2 0.675 
9 *5:19 *165:IN2 0.3375 
10 *165:IN2 *5:89 0.675 
11 *5:89 *162:IN2 0.675 
12 *5:89 *163:IN2 0 
13 *5:17 *160:IN2 0.3375 
*END

*D_NET *6 0
*CONN
*P count[2] O
*I *168:IN3 I *D AND500
*I *171:IN3 I *D NND600
*I *165:IN3 I *D AND400
*I *163:IN3 I *D ADNR00
*I *162:IN3 I *D AND300
*I *181:Q O *D DFFL11
*CAP
1 count[2] 0
2 *168:IN3 0
3 *171:IN3 0
4 *165:IN3 0
5 *163:IN3 0
6 *162:IN3 0
7 *181:Q 0
8 *6:46 0
9 *6:35 0
10 *162:IN3 *164:IN2 0
11 *162:IN3 *181:D 0
12 *162:IN3 *12:41 0
13 *165:IN3 *164:IN2 0
14 *165:IN3 *164:IN3 0
15 *165:IN3 *166:IN2 0
16 *165:IN3 *8:13 0
17 *165:IN3 *12:35 0
18 *168:IN3 count[3] 0
19 *168:IN3 *168:IN5 0
20 *171:IN3 *168:IN5 0
21 *171:IN3 *171:IN5 0
22 *6:35 *160:IN3 0
23 *6:35 *165:IN4 0
24 *6:35 *167:IN1 0
25 *6:35 *168:IN5 0
26 *6:35 *169:IN2 0
27 *6:35 *170:IN2 0
28 *6:35 *8:13 0
29 *6:35 *8:19 0
30 count[0] count[2] 0
31 count[0] *171:IN3 0
32 count[1] count[2] 0
33 *162:IN2 *165:IN3 0
34 *163:IN1 *165:IN3 0
35 *168:IN2 *168:IN3 0
36 *171:IN1 *171:IN3 0
37 *4:35 *165:IN3 0
38 *4:35 *6:35 0
39 *5:89 *165:IN3 0
*RES
1 *181:Q *162:IN3 0 
2 *162:IN3 *163:IN3 0 
3 *163:IN3 *165:IN3 0 
4 *165:IN3 *6:35 0.675 
5 *6:35 *171:IN3 0 
6 *171:IN3 *6:46 0 
7 *6:35 count[2] 0 
8 *6:35 *168:IN3 0 
*END

*D_NET *7 0
*CONN
*P count[3] O
*I *166:IN1 I *D ORND00
*I *165:IN4 I *D AND400
*I *171:IN4 I *D NND600
*I *168:IN4 I *D AND500
*I *182:Q O *D DFFL11
*CAP
1 count[3] 0
2 *166:IN1 0
3 *165:IN4 0
4 *171:IN4 0
5 *168:IN4 0
6 *182:Q 0
7 *7:21 0
8 *7:19 0
9 *7:15 0
10 *7:13 0
11 count[3] *168:IN5 0
12 *165:IN4 *8:13 0
13 *166:IN1 *166:IN3 0
14 *166:IN1 *167:IN1 0
15 *166:IN1 *167:IN2 0
16 *166:IN1 *182:C 0
17 *168:IN4 *171:IN5 0
18 *7:13 *179:C 0
19 *7:13 *180:C 0
20 *7:13 *182:C 0
21 *7:13 *45:19 0
22 *7:19 *170:IN1 0
23 *7:19 *173:IN2 0
24 *7:19 *183:C 0
25 *7:21 *168:IN5 0
26 *7:21 *171:IN5 0
27 *165:IN1 *166:IN1 0
28 *165:IN1 *7:15 0
29 *168:IN1 count[3] 0
30 *168:IN2 count[3] 0
31 *168:IN3 count[3] 0
32 *171:IN1 *171:IN4 0
33 *171:IN2 count[3] 0
34 *171:IN2 *171:IN4 0
35 *4:35 *166:IN1 0
36 *4:49 *7:15 0
37 *4:49 *7:19 0
38 *5:19 *7:13 0
39 *5:19 *7:15 0
40 *5:25 *7:15 0
41 *5:25 *7:19 0
42 *5:45 count[3] 0
43 *5:45 *7:21 0
44 *5:89 *166:IN1 0
45 *6:35 *165:IN4 0
*RES
1 *182:Q *7:13 0.3375 
2 *7:13 *7:15 0 
3 *7:15 *7:19 0.3375 
4 *7:19 *7:21 0 
5 *7:21 *168:IN4 0 
6 *7:21 count[3] 0 
7 *7:19 *171:IN4 0 
8 *7:15 *165:IN4 0.3375 
9 *7:13 *166:IN1 0.3375 
*END

*D_NET *8 0
*CONN
*P count[4] O
*I *169:IN1 I *D ORND00
*I *171:IN5 I *D NND600
*I *168:IN5 I *D AND500
*I *183:Q O *D DFFL11
*CAP
1 count[4] 0
2 *169:IN1 0
3 *171:IN5 0
4 *168:IN5 0
5 *183:Q 0
6 *8:19 0
7 *8:13 0
8 *168:IN5 *12:19 0
9 *8:13 *169:IN2 0
10 *8:13 *12:35 0
11 *8:13 *29:21 0
12 *8:19 *160:IN3 0
13 *8:19 *169:IN2 0
14 *8:19 *170:IN2 0
15 *8:19 *12:19 0
16 count[3] *168:IN5 0
17 *165:IN3 *8:13 0
18 *165:IN4 *8:13 0
19 *168:IN3 *168:IN5 0
20 *168:IN4 *171:IN5 0
21 *171:IN3 *168:IN5 0
22 *171:IN3 *171:IN5 0
23 *6:35 *168:IN5 0
24 *6:35 *8:13 0
25 *6:35 *8:19 0
26 *7:21 *168:IN5 0
27 *7:21 *171:IN5 0
*RES
1 *183:Q *8:13 0 
2 *8:13 *8:19 0.3375 
3 *8:19 *168:IN5 0.3375 
4 *168:IN5 *171:IN5 0 
5 *8:19 count[4] 0.3375 
6 *8:13 *169:IN1 0 
*END

*D_NET *9 0
*CONN
*P count[5] O
*I *172:IN1 I *D OR2100
*I *171:IN6 I *D NND600
*I *184:Q O *D DFFL11
*CAP
1 count[5] 0
2 *172:IN1 0
3 *171:IN6 0
4 *184:Q 0
5 *9:9 0
6 count[5] *173:IN1 0
7 count[5] *173:IN2 0
8 count[5] *184:D 0
9 count[5] *12:7 0
10 *171:IN6 *173:IN2 0
11 *171:IN6 *183:C 0
12 *172:IN1 *172:IN2 0
13 *172:IN1 *173:IN3 0
14 *9:9 *173:IN3 0
15 *171:IN1 count[5] 0
16 *171:IN1 *9:9 0
17 *171:IN2 *172:IN1 0
18 *171:IN2 *9:9 0
*RES
1 *184:Q *9:9 0 
2 *9:9 count[5] 0 
3 *9:9 *171:IN6 0.675 
4 *184:Q *172:IN1 0 
*END

*D_NET *10 0
*CONN
*P count[6] O
*I *158:IN1 I *D INVR00
*I *185:Q O *D DFFL11
*CAP
1 count[6] 0
2 *158:IN1 0
3 *185:Q 0
4 count[6] count[7] 0
5 *158:IN1 *177:IN2 0
6 *158:IN1 *178:IN1 0
7 *158:IN1 *22:9 0
8 *158:IN1 *30:57 0
*RES
1 *185:Q *158:IN1 0.675 
2 *158:IN1 count[6] 0.3375 
*END

*D_NET *11 0
*CONN
*P count[7] O
*I *177:IN2 I *D OR3100
*I *176:IN3 I *D ORND00
*I *186:Q O *D DFFL11
*CAP
1 count[7] 0
2 *177:IN2 0
3 *176:IN3 0
4 *186:Q 0
5 *11:19 0
6 *11:13 0
7 *176:IN3 *176:IN1 0
8 *176:IN3 *176:IN2 0
9 *176:IN3 *178:IN1 0
10 *177:IN2 *177:IN3 0
11 *177:IN2 *22:9 0
12 *11:13 *176:IN2 0
13 *11:13 *178:IN1 0
14 *11:13 *178:IN2 0
15 *11:19 *176:IN2 0
16 *11:19 *178:IN1 0
17 count[6] count[7] 0
18 *158:IN1 *177:IN2 0
*RES
1 *186:Q *11:13 0.3375 
2 *11:13 *11:19 0 
3 *11:19 count[7] 0 
4 *11:19 *176:IN3 0.3375 
5 *11:13 *177:IN2 0.3375 
*END

*D_NET *12 0
*CONN
*P rst_n I
*I *160:IN3 I *D ORND00
*I *166:IN3 I *D ORND00
*I *159:IN2 I *D AND200
*I *157:IN1 I *D INVR00
*I *169:IN3 I *D ORND00
*I *173:IN1 I *D AND300
*CAP
1 rst_n 0
2 *160:IN3 0
3 *166:IN3 0
4 *159:IN2 0
5 *157:IN1 0
6 *169:IN3 0
7 *173:IN1 0
8 *12:41 0
9 *12:35 0
10 *12:19 0
11 *12:7 0
12 *157:IN1 *178:IN1 0
13 *157:IN1 *178:IN2 0
14 *157:IN1 *178:IN3 0
15 *159:IN2 *179:D 0
16 *160:IN3 *169:IN2 0
17 *160:IN3 *170:IN2 0
18 *160:IN3 *189:IN1 0
19 *166:IN3 *166:IN2 0
20 *169:IN3 *169:IN2 0
21 *169:IN3 *43:7 0
22 *173:IN1 *188:IN1 0
23 *12:19 *170:IN2 0
24 *12:19 *188:IN1 0
25 *12:35 *169:IN2 0
26 *12:35 *43:7 0
27 *12:41 *164:IN1 0
28 *12:41 *164:IN2 0
29 *12:41 *164:IN3 0
30 *12:41 *181:C 0
31 *12:41 *181:D 0
32 *12:41 *21:5 0
33 count[0] *12:7 0
34 count[5] *173:IN1 0
35 count[5] *12:7 0
36 *160:IN1 *160:IN3 0
37 *162:IN3 *12:41 0
38 *163:IN1 *12:41 0
39 *163:IN2 *12:41 0
40 *165:IN3 *12:35 0
41 *166:IN1 *166:IN3 0
42 *168:IN5 *12:19 0
43 *4:49 *12:19 0
44 *4:53 *12:19 0
45 *5:89 *12:35 0
46 *5:89 *12:41 0
47 *6:35 *160:IN3 0
48 *8:13 *12:35 0
49 *8:19 *160:IN3 0
50 *8:19 *12:19 0
*RES
1 rst_n *12:7 0.3375 
2 *12:7 *173:IN1 0.3375 
3 *12:7 *12:19 0 
4 *12:19 *169:IN3 0.3375 
5 *169:IN3 *12:35 0.3375 
6 *12:35 *12:41 0.675 
7 *12:41 *157:IN1 0.3375 
8 *12:41 *159:IN2 0.3375 
9 *12:35 *166:IN3 0.3375 
10 *12:19 *160:IN3 0.3375 
*END

*D_NET *13 0
*CONN
*I *179:D I *D DFFL11
*I *159:OUT1 O *D AND200
*CAP
1 *179:D 0
2 *159:OUT1 0
3 *179:D *159:IN1 0
4 *179:D *181:C 0
5 *159:IN2 *179:D 0
*RES
1 *159:OUT1 *179:D 0 
*END

*D_NET *14 0
*CONN
*I *180:D I *D DFFL11
*I *161:OUT1 O *D ADNR00
*CAP
1 *180:D 0
2 *161:OUT1 0
3 *180:D *161:IN3 0
4 *180:D *180:C 0
5 *5:17 *180:D 0
*RES
1 *161:OUT1 *180:D 0.675 
*END

*D_NET *15 0
*CONN
*I *181:D I *D DFFL11
*I *164:OUT1 O *D NOR300
*CAP
1 *181:D 0
2 *164:OUT1 0
3 *181:D *181:C 0
4 *162:IN3 *181:D 0
5 *12:41 *181:D 0
*RES
1 *164:OUT1 *181:D 0 
*END

*D_NET *16 0
*CONN
*I *182:D I *D DFFL11
*I *167:OUT1 O *D NOR200
*CAP
1 *182:D 0
2 *167:OUT1 0
3 *182:D *167:IN2 0
4 *182:D *179:C 0
5 *182:D *45:7 0
*RES
1 *167:OUT1 *182:D 0 
*END

*D_NET *17 0
*CONN
*I *183:D I *D DFFL11
*I *170:OUT1 O *D NOR200
*CAP
1 *183:D 0
2 *170:OUT1 0
3 *17:12 0
4 *183:D *43:7 0
5 *187:IN1 *183:D 0
*RES
1 *170:OUT1 *183:D 0 
2 *183:D *17:12 0 
*END

*D_NET *18 0
*CONN
*I *184:D I *D DFFL11
*I *173:OUT1 O *D AND300
*CAP
1 *184:D 0
2 *173:OUT1 0
3 *184:D *173:IN2 0
4 *184:D *173:IN3 0
5 *184:D *183:C 0
6 *184:D *44:5 0
7 *184:D *44:19 0
8 count[5] *184:D 0
*RES
1 *173:OUT1 *184:D 0.675 
*END

*D_NET *19 0
*CONN
*I *185:D I *D DFFL11
*I *175:OUT1 O *D NOR200
*CAP
1 *185:D 0
2 *175:OUT1 0
3 *19:20 0
4 *185:D *175:IN1 0
5 *185:D *175:IN2 0
6 *185:D *176:IN1 0
7 *185:D *185:C 0
8 *185:D *186:C 0
9 *185:D *22:9 0
10 *185:D *44:21 0
*RES
1 *175:OUT1 *185:D 0.675 
2 *185:D *19:20 0 
*END

*D_NET *20 0
*CONN
*I *186:D I *D DFFL11
*I *178:OUT1 O *D ADNR00
*CAP
1 *186:D 0
2 *178:OUT1 0
3 *20:24 0
4 *186:D *175:IN1 0
5 *186:D *178:IN3 0
6 *186:D *186:C 0
7 *186:D *21:5 0
8 *186:D *21:15 0
*RES
1 *178:OUT1 *186:D 0.675 
2 *186:D *20:24 0 
*END

*D_NET *21 0
*CONN
*I *178:IN3 I *D ADNR00
*I *175:IN1 I *D NOR200
*I *164:IN1 I *D NOR300
*I *157:OUT1 O *D INVR00
*CAP
1 *178:IN3 0
2 *175:IN1 0
3 *164:IN1 0
4 *157:OUT1 0
5 *21:15 0
6 *21:5 0
7 *164:IN1 *164:IN2 0
8 *175:IN1 *175:IN2 0
9 *175:IN1 *30:57 0
10 *178:IN3 *178:IN2 0
11 *157:IN1 *178:IN3 0
12 *185:D *175:IN1 0
13 *186:D *175:IN1 0
14 *186:D *178:IN3 0
15 *186:D *21:5 0
16 *186:D *21:15 0
17 *12:41 *164:IN1 0
18 *12:41 *21:5 0
*RES
1 *157:OUT1 *21:5 0 
2 *21:5 *164:IN1 0 
3 *21:5 *21:15 0.3375 
4 *21:15 *175:IN1 0.3375 
5 *21:15 *178:IN3 0.3375 
*END

*D_NET *22 0
*CONN
*I *177:IN1 I *D OR3100
*I *176:IN1 I *D ORND00
*I *174:IN1 I *D XNR200
*I *158:OUT1 O *D INVR00
*CAP
1 *177:IN1 0
2 *176:IN1 0
3 *174:IN1 0
4 *158:OUT1 0
5 *22:16 0
6 *22:9 0
7 *174:IN1 *175:IN2 0
8 *174:IN1 *30:57 0
9 *174:IN1 *44:21 0
10 *176:IN1 *178:IN1 0
11 *176:IN1 *185:C 0
12 *176:IN1 *186:C 0
13 *22:9 *178:IN1 0
14 *22:9 *185:C 0
15 *22:9 *30:57 0
16 *158:IN1 *22:9 0
17 *176:IN3 *176:IN1 0
18 *177:IN2 *22:9 0
19 *185:D *176:IN1 0
20 *185:D *22:9 0
*RES
1 *158:OUT1 *22:9 0 
2 *22:9 *174:IN1 0 
3 *174:IN1 *22:16 0 
4 *22:9 *176:IN1 0.675 
5 *158:OUT1 *177:IN1 0 
*END

*D_NET *23 0
*CONN
*I *161:IN3 I *D ADNR00
*I *160:OUT1 O *D ORND00
*CAP
1 *161:IN3 0
2 *160:OUT1 0
3 *160:IN1 *161:IN3 0
4 *160:IN2 *161:IN3 0
5 *180:D *161:IN3 0
6 *5:17 *161:IN3 0
*RES
1 *160:OUT1 *161:IN3 0.675 
*END

*D_NET *24 0
*CONN
*I *164:IN2 I *D NOR300
*I *166:IN2 I *D ORND00
*I *162:OUT1 O *D AND300
*CAP
1 *164:IN2 0
2 *166:IN2 0
3 *162:OUT1 0
4 *164:IN2 *181:C 0
5 *162:IN1 *166:IN2 0
6 *162:IN3 *164:IN2 0
7 *164:IN1 *164:IN2 0
8 *165:IN3 *164:IN2 0
9 *165:IN3 *166:IN2 0
10 *166:IN3 *166:IN2 0
11 *4:13 *166:IN2 0
12 *4:15 *166:IN2 0
13 *12:41 *164:IN2 0
*RES
1 *162:OUT1 *166:IN2 0.675 
2 *162:OUT1 *164:IN2 0.675 
*END

*D_NET *25 0
*CONN
*I *164:IN3 I *D NOR300
*I *163:OUT1 O *D ADNR00
*CAP
1 *164:IN3 0
2 *163:OUT1 0
3 *162:IN2 *164:IN3 0
4 *163:IN1 *164:IN3 0
5 *165:IN3 *164:IN3 0
6 *4:15 *164:IN3 0
7 *12:41 *164:IN3 0
*RES
1 *163:OUT1 *164:IN3 0.675 
*END

*D_NET *26 0
*CONN
*I *169:IN2 I *D ORND00
*I *167:IN1 I *D NOR200
*I *165:OUT1 O *D AND400
*CAP
1 *169:IN2 0
2 *167:IN1 0
3 *165:OUT1 0
4 *167:IN1 *167:IN2 0
5 *167:IN1 *182:C 0
6 *169:IN2 *167:IN2 0
7 *169:IN2 *170:IN2 0
8 *169:IN2 *189:IN1 0
9 *169:IN2 *45:7 0
10 *160:IN3 *169:IN2 0
11 *166:IN1 *167:IN1 0
12 *169:IN3 *169:IN2 0
13 *6:35 *167:IN1 0
14 *6:35 *169:IN2 0
15 *8:13 *169:IN2 0
16 *8:19 *169:IN2 0
17 *12:35 *169:IN2 0
*RES
1 *165:OUT1 *167:IN1 0 
2 *167:IN1 *169:IN2 0.675 
*END

*D_NET *27 0
*CONN
*I *167:IN2 I *D NOR200
*I *166:OUT1 O *D ORND00
*CAP
1 *167:IN2 0
2 *166:OUT1 0
3 *167:IN2 *182:C 0
4 *167:IN2 *45:7 0
5 *166:IN1 *167:IN2 0
6 *167:IN1 *167:IN2 0
7 *169:IN2 *167:IN2 0
8 *182:D *167:IN2 0
*RES
1 *166:OUT1 *167:IN2 0 
*END

*D_NET *28 0
*CONN
*I *172:IN2 I *D OR2100
*I *170:IN1 I *D NOR200
*I *168:OUT1 O *D AND500
*CAP
1 *172:IN2 0
2 *170:IN1 0
3 *168:OUT1 0
4 *170:IN1 *170:IN2 0
5 *170:IN1 *173:IN2 0
6 *170:IN1 *174:IN2 0
7 *170:IN1 *183:C 0
8 *172:IN2 *173:IN3 0
9 *172:IN2 *174:IN2 0
10 *172:IN1 *172:IN2 0
11 *187:IN1 *170:IN1 0
12 *187:IN1 *172:IN2 0
13 *5:45 *170:IN1 0
14 *7:19 *170:IN1 0
*RES
1 *168:OUT1 *170:IN1 0.675 
2 *170:IN1 *172:IN2 0.675 
*END

*D_NET *29 0
*CONN
*I *170:IN2 I *D NOR200
*I *169:OUT1 O *D ORND00
*CAP
1 *170:IN2 0
2 *169:OUT1 0
3 *29:21 0
4 *170:IN2 *188:IN1 0
5 *170:IN2 *189:IN1 0
6 *160:IN3 *170:IN2 0
7 *169:IN2 *170:IN2 0
8 *170:IN1 *170:IN2 0
9 *187:IN1 *170:IN2 0
10 *4:49 *170:IN2 0
11 *5:45 *170:IN2 0
12 *6:35 *170:IN2 0
13 *8:13 *29:21 0
14 *8:19 *170:IN2 0
15 *12:19 *170:IN2 0
*RES
1 *169:OUT1 *170:IN2 0.675 
2 *169:OUT1 *29:21 0 
*END

*D_NET *30 0
*CONN
*I *177:IN3 I *D OR3100
*I *176:IN2 I *D ORND00
*I *174:IN2 I *D XNR200
*I *173:IN2 I *D AND300
*I *171:OUT1 O *D NND600
*CAP
1 *177:IN3 0
2 *176:IN2 0
3 *174:IN2 0
4 *173:IN2 0
5 *171:OUT1 0
6 *30:57 0
7 *173:IN2 *173:IN3 0
8 *173:IN2 *183:C 0
9 *173:IN2 *44:5 0
10 *176:IN2 *178:IN1 0
11 *177:IN3 *178:IN2 0
12 *30:57 *175:IN2 0
13 *30:57 *186:C 0
14 count[5] *173:IN2 0
15 *158:IN1 *30:57 0
16 *170:IN1 *173:IN2 0
17 *170:IN1 *174:IN2 0
18 *171:IN2 *173:IN2 0
19 *171:IN2 *174:IN2 0
20 *171:IN6 *173:IN2 0
21 *172:IN2 *174:IN2 0
22 *174:IN1 *30:57 0
23 *175:IN1 *30:57 0
24 *176:IN3 *176:IN2 0
25 *177:IN2 *177:IN3 0
26 *184:D *173:IN2 0
27 *7:19 *173:IN2 0
28 *11:13 *176:IN2 0
29 *11:19 *176:IN2 0
30 *22:9 *30:57 0
*RES
1 *171:OUT1 *173:IN2 0.675 
2 *171:OUT1 *174:IN2 0.675 
3 *174:IN2 *30:57 0 
4 *30:57 *176:IN2 0.675 
5 *30:57 *177:IN3 0 
*END

*D_NET *31 0
*CONN
*I *173:IN3 I *D AND300
*I *172:OUT1 O *D OR2100
*CAP
1 *173:IN3 0
2 *172:OUT1 0
3 *173:IN3 *44:5 0
4 *173:IN3 *44:19 0
5 *173:IN3 *44:21 0
6 *172:IN1 *173:IN3 0
7 *172:IN2 *173:IN3 0
8 *173:IN2 *173:IN3 0
9 *184:D *173:IN3 0
10 *9:9 *173:IN3 0
*RES
1 *172:OUT1 *173:IN3 0.675 
*END

*D_NET *32 0
*CONN
*I *175:IN2 I *D NOR200
*I *174:OUT1 O *D XNR200
*CAP
1 *175:IN2 0
2 *174:OUT1 0
3 *175:IN2 *186:C 0
4 *174:IN1 *175:IN2 0
5 *175:IN1 *175:IN2 0
6 *185:D *175:IN2 0
7 *30:57 *175:IN2 0
*RES
1 *174:OUT1 *175:IN2 0.675 
*END

*D_NET *33 0
*CONN
*I *178:IN1 I *D ADNR00
*I *176:OUT1 O *D ORND00
*CAP
1 *178:IN1 0
2 *176:OUT1 0
3 *178:IN1 *178:IN2 0
4 *178:IN1 *185:C 0
5 *157:IN1 *178:IN1 0
6 *158:IN1 *178:IN1 0
7 *176:IN1 *178:IN1 0
8 *176:IN2 *178:IN1 0
9 *176:IN3 *178:IN1 0
10 *11:13 *178:IN1 0
11 *11:19 *178:IN1 0
12 *22:9 *178:IN1 0
*RES
1 *176:OUT1 *178:IN1 0.675 
*END

*D_NET *34 0
*CONN
*I *178:IN2 I *D ADNR00
*I *177:OUT1 O *D OR3100
*CAP
1 *178:IN2 0
2 *177:OUT1 0
3 *157:IN1 *178:IN2 0
4 *177:IN3 *178:IN2 0
5 *178:IN1 *178:IN2 0
6 *178:IN3 *178:IN2 0
7 *11:13 *178:IN2 0
*RES
1 *177:OUT1 *178:IN2 0.675 
*END

*D_NET *42 0
*CONN
*I *159:IN1 I *D AND200
*I *179:QB O *D DFFL11
*CAP
1 *159:IN1 0
2 *179:QB 0
3 *179:D *159:IN1 0
*RES
1 *179:QB *159:IN1 0 
*END

*D_NET *43 0
*CONN
*I *189:IN1 I *D INVR00
*I *188:IN1 I *D INVR00
*I *187:OUT1 O *D INVR00
*CAP
1 *189:IN1 0
2 *188:IN1 0
3 *187:OUT1 0
4 *43:7 0
5 *43:7 *183:C 0
6 *160:IN3 *189:IN1 0
7 *168:IN2 *188:IN1 0
8 *169:IN2 *189:IN1 0
9 *169:IN3 *43:7 0
10 *170:IN2 *188:IN1 0
11 *170:IN2 *189:IN1 0
12 *173:IN1 *188:IN1 0
13 *183:D *43:7 0
14 *187:IN1 *43:7 0
15 *4:49 *188:IN1 0
16 *4:49 *43:7 0
17 *4:53 *188:IN1 0
18 *12:19 *188:IN1 0
19 *12:35 *43:7 0
*RES
1 *187:OUT1 *43:7 0.3375 
2 *43:7 *188:IN1 0.3375 
3 *43:7 *189:IN1 0.3375 
*END

*D_NET *44 0
*CONN
*I *184:C I *D DFFL11
*I *185:C I *D DFFL11
*I *186:C I *D DFFL11
*I *183:C I *D DFFL11
*I *188:OUT1 O *D INVR00
*CAP
1 *184:C 0
2 *185:C 0
3 *186:C 0
4 *183:C 0
5 *188:OUT1 0
6 *44:21 0
7 *44:19 0
8 *44:5 0
9 *170:IN1 *183:C 0
10 *171:IN6 *183:C 0
11 *173:IN2 *183:C 0
12 *173:IN2 *44:5 0
13 *173:IN3 *44:5 0
14 *173:IN3 *44:19 0
15 *173:IN3 *44:21 0
16 *174:IN1 *44:21 0
17 *175:IN2 *186:C 0
18 *176:IN1 *185:C 0
19 *176:IN1 *186:C 0
20 *178:IN1 *185:C 0
21 *184:D *183:C 0
22 *184:D *44:5 0
23 *184:D *44:19 0
24 *185:D *185:C 0
25 *185:D *186:C 0
26 *185:D *44:21 0
27 *186:D *186:C 0
28 *187:IN1 *183:C 0
29 *7:19 *183:C 0
30 *22:9 *185:C 0
31 *30:57 *186:C 0
32 *43:7 *183:C 0
*RES
1 *188:OUT1 *44:5 0 
2 *44:5 *183:C 0.675 
3 *44:5 *44:19 0 
4 *44:19 *44:21 0 
5 *44:21 *186:C 0.675 
6 *44:21 *185:C 0 
7 *44:19 *184:C 0 
*END

*D_NET *45 0
*CONN
*I *180:C I *D DFFL11
*I *181:C I *D DFFL11
*I *179:C I *D DFFL11
*I *182:C I *D DFFL11
*I *189:OUT1 O *D INVR00
*CAP
1 *180:C 0
2 *181:C 0
3 *179:C 0
4 *182:C 0
5 *189:OUT1 0
6 *45:19 0
7 *45:7 0
8 *164:IN2 *181:C 0
9 *166:IN1 *182:C 0
10 *167:IN1 *182:C 0
11 *167:IN2 *182:C 0
12 *167:IN2 *45:7 0
13 *169:IN2 *45:7 0
14 *179:D *181:C 0
15 *180:D *180:C 0
16 *181:D *181:C 0
17 *182:D *179:C 0
18 *182:D *45:7 0
19 *5:19 *180:C 0
20 *7:13 *179:C 0
21 *7:13 *180:C 0
22 *7:13 *182:C 0
23 *7:13 *45:19 0
24 *12:41 *181:C 0
*RES
1 *189:OUT1 *45:7 0.3375 
2 *45:7 *182:C 0.3375 
3 *45:7 *45:19 0 
4 *45:19 *179:C 0.3375 
5 *179:C *181:C 0.675 
6 *45:19 *180:C 0.3375 
*END
